#######################



#######################
Set parameter TimeLimit to value 500
Set parameter SoftMemLimit to value 125
Set parameter LogFile to value 1003-TimeLimit500-k16x240-0.log
Set parameter Seed to value 10
Using license file /opt/gurobi/gurobi.lic

Gurobi Optimizer version 10.0.3 build v10.0.3rc0 (linux64)
Copyright (c) 2023, Gurobi Optimization, LLC

Read MPS format model from file /miplib2010/k16x240.mps.bz2
Reading time = 0.00 seconds
k16x240: 256 rows, 480 columns, 960 nonzeros

CPU model: Intel(R) Xeon(R) E-2388G CPU @ 3.20GHz, instruction set [SSE2|AVX|AVX2|AVX512]
Thread count: 8 physical cores, 16 logical processors, using up to 16 threads

Optimize a model with 256 rows, 480 columns and 960 nonzeros
Model fingerprint: 0x4e80885f
Variable types: 240 continuous, 240 integer (240 binary)
Coefficient statistics:
  Matrix range     [1e+00, 1e+03]
  Objective range  [1e+00, 1e+03]
  Bounds range     [1e+00, 1e+03]
  RHS range        [4e+00, 4e+02]
Found heuristic solution: objective 20380.000000
Presolve time: 0.00s
Presolved: 256 rows, 480 columns, 960 nonzeros
Variable types: 240 continuous, 240 integer (240 binary)

Root relaxation: objective 2.769838e+03, 51 iterations, 0.00 seconds (0.00 work units)

    Nodes    |    Current Node    |     Objective Bounds      |     Work
 Expl Unexpl |  Obj  Depth IntInf | Incumbent    BestBd   Gap | It/Node Time

     0     0 2769.83800    0   14 20380.0000 2769.83800  86.4%     -    0s
H    0     0                    11359.000000 2769.83800  75.6%     -    0s
H    0     0                    11195.000000 2769.83800  75.3%     -    0s
H    0     0                    11074.000000 8084.69631  27.0%     -    0s
     0     0 8084.69631    0   26 11074.0000 8084.69631  27.0%     -    0s
H    0     0                    10916.000000 8084.69631  25.9%     -    0s
     0     0 8528.16906    0   24 10916.0000 8528.16906  21.9%     -    0s
H    0     0                    10896.000000 8539.15185  21.6%     -    0s
     0     0 8539.15185    0   34 10896.0000 8539.15185  21.6%     -    0s
     0     0 8548.03675    0   29 10896.0000 8548.03675  21.5%     -    0s
H    0     0                    10779.000000 8548.03675  20.7%     -    0s
     0     0 8733.37944    0   34 10779.0000 8733.37944  19.0%     -    0s
H    0     0                    10717.000000 8733.37944  18.5%     -    0s
     0     0 8793.89382    0   28 10717.0000 8793.89382  17.9%     -    0s
     0     0 8813.48501    0   28 10717.0000 8813.48501  17.8%     -    0s
     0     0 8817.87868    0   34 10717.0000 8817.87868  17.7%     -    0s
     0     0 8889.00737    0   35 10717.0000 8889.00737  17.1%     -    0s
H    0     0                    10711.000000 8905.32537  16.9%     -    0s
     0     0 8905.32537    0   35 10711.0000 8905.32537  16.9%     -    0s
     0     0 8916.58773    0   32 10711.0000 8916.58773  16.8%     -    0s
     0     0 8925.90652    0   36 10711.0000 8925.90652  16.7%     -    0s
H    0     0                    10674.000000 8927.00113  16.4%     -    0s
     0     0 8927.00113    0   33 10674.0000 8927.00113  16.4%     -    0s
     0     0 9028.07788    0   18 10674.0000 9028.07788  15.4%     -    0s
     0     0 9040.95438    0   32 10674.0000 9040.95438  15.3%     -    0s
     0     0 9055.32707    0   38 10674.0000 9055.32707  15.2%     -    0s
     0     0 9055.73105    0   30 10674.0000 9055.73105  15.2%     -    0s
     0     0 9094.69048    0   35 10674.0000 9094.69048  14.8%     -    0s
     0     0 9094.69048    0   35 10674.0000 9094.69048  14.8%     -    0s
     0     2 9094.69048    0   35 10674.0000 9094.69048  14.8%     -    0s
 35827 11901 10610.6000   25   19 10674.0000 10114.0808  5.25%  22.9    5s
 82715 15537     cutoff   31      10674.0000 10314.4266  3.37%  23.6   10s
 132322   734     cutoff   30      10674.0000 10573.6183  0.94%  23.1   15s

Cutting planes:
  Gomory: 2
  Lift-and-project: 19
  Cover: 86
  Implied bound: 37
  MIR: 174
  Flow cover: 269
  Flow path: 42
  Inf proof: 2
  Zero half: 9
  Network: 62
  Relax-and-lift: 3

Explored 134999 nodes (3074513 simplex iterations) in 15.13 seconds (17.91 work units)
Thread count was 16 (of 16 available processors)

Solution count 10: 10674 10711 10717 ... 20380

Optimal solution found (tolerance 1.00e-04)
Best objective 1.067400000000e+04, best bound 1.067400000000e+04, gap 0.0000%
